


%INTER

grid_string= array2d(1..7, 1..7, ["4", ".", ".", ".", "2", ".", "1",
".", ".", ".", ".", ".", ".", ".",
"3", ".", "2", ".", ".", "1", ".",
".", ".", ".", ".", ".", ".", ".",
"5", ".", "5", ".", ".", ".", "4",
".", ".", ".", ".", ".", ".", ".",
"4", ".", "5", ".", "3", ".", "3"]);